p cnf 73
-2 1
-3 1
-4 1
-5 1
-5 -2
-1 2 5
-6 -1
-6 2
1 -2 6
-7 -5
-7 -6
5 6 7
-8 1
-8 -3
-1 3 8
-9 -1
-9 3
1 -3 9
-10 -8
-10 -9
8 9 10
-11 1
-11 -4
-1 4 11
-12 -1
-12 4
1 -4 12
-13 -11
-13 -12
11 12 13
-14 -7
-14 10
7 -10 14
-15 7
-15 -10
-7 10 15
-16 -14
-16 -15
14 15 16
-17 -7
-17 -10
7 10 17
-18 13
-18 -16
-13 16 18
-19 -13
-19 16
13 -16 19
-20 -18
-20 -19
18 19 20
-21 -13
-21 -16
13 16 21
-22 17
-22 -21
-17 21 22
-23 -17
-23 21
17 -21 23
-24 -22
-24 -23
22 23 24
-25 17
-25 21
-17 -21 25
-26 -20
-26 -24
20 24 26
-27 -13
-27 -26
13 26 27
27
